row=9;
column=9;
Board=[|3,1,5,6,4,9,7,2,8|2,7,6,5,8,1,3,9,4|8,5,3,2,1,4,9,6,7|7,6,1,8,5,3,2,4,9|5,3,9,4,7,2,6,8,1|9,2,4,7,3,8,1,5,6|6,9,8,3,2,7,4,1,5|4,8,2,1,9,6,5,7,3|1,4,7,9,6,5,8,3,2|];
horizontal=[|1,0,0,1,0,1,1,0|0,1,1,0,1,0,0,1|1,1,1,1,0,0,1,0|1,1,0,1,1,1,0,0|1,0,1,0,1,0,0,1|1,0,0,1,0,1,0,0|0,1,1,1,0,1,1,0|0,1,1,0,1,1,0,1|0,0,0,-1,1,0,1,1|];
vertical=[|1,0,0,1,0,1,1,0,1|0,1,1,1,1,0,0,1,0|1,0,1,0,0,1,1,1,0|1,1,0,1,0,1,0,0,1|0,1,1,0,1,0,1,1,0|1,0,0,1,1,1,0,1,1|1,1,1,1,0,1,0,0,1|1,1,0,0,1,1,0,1,1|];
